20
ec_dimer | charge=0 mult=1 | EC 이량체 (20원자) — LEDC 전구체 크기대 | idealized, NOT optimized
C       0.000000     1.190000     0.000000
O      -1.132000     0.368000     0.000000
C      -0.699000    -0.963000     0.000000
C       0.699000    -0.963000     0.000000
O       1.132000     0.368000     0.000000
O       0.000000     2.390000     0.000000
H      -1.049000    -1.443000     0.880000
H      -1.049000    -1.443000    -0.880000
H       1.049000    -1.443000     0.880000
H       1.049000    -1.443000    -0.880000
C       0.000000     1.190000     4.200000
O      -1.132000     0.368000     4.200000
C      -0.699000    -0.963000     4.200000
C       0.699000    -0.963000     4.200000
O       1.132000     0.368000     4.200000
O       0.000000     2.390000     4.200000
H      -1.049000    -1.443000     5.080000
H      -1.049000    -1.443000     3.320000
H       1.049000    -1.443000     5.080000
H       1.049000    -1.443000     3.320000
