10
ec_radical_anion | charge=-1 mult=2 | EC•- — 환원 1단계. 개각 + 음이온 | idealized, NOT optimized
C       0.000000     1.190000     0.000000
O      -1.132000     0.368000     0.000000
C      -0.699000    -0.963000     0.000000
C       0.699000    -0.963000     0.000000
O       1.132000     0.368000     0.000000
O       0.000000     2.390000     0.000000
H      -1.049000    -1.443000     0.880000
H      -1.049000    -1.443000    -0.880000
H       1.049000    -1.443000     0.880000
H       1.049000    -1.443000    -0.880000
