15
emc | charge=0 mult=1 | EMC — 공용매 (15원자) | idealized, NOT optimized
C       0.000000     0.000000     0.000000
O       0.000000     1.200000     0.000000
O      -1.150000    -0.700000     0.000000
O       1.150000    -0.700000     0.000000
C      -2.400000     0.050000     0.000000
C       2.400000     0.050000     0.000000
C       3.600000    -0.850000     0.000000
H      -3.250000    -0.620000     0.000000
H      -2.450000     0.680000     0.890000
H      -2.450000     0.680000    -0.890000
H       2.450000     0.680000     0.890000
H       2.450000     0.680000    -0.890000
H       4.500000    -0.300000     0.000000
H       3.620000    -1.480000     0.890000
H       3.620000    -1.480000    -0.890000
