11
li_ec_radical | charge=0 mult=2 | Li(EC)• — 환원 착물, 개각 | idealized, NOT optimized
C       0.000000     1.190000     0.000000
O      -1.132000     0.368000     0.000000
C      -0.699000    -0.963000     0.000000
C       0.699000    -0.963000     0.000000
O       1.132000     0.368000     0.000000
O       0.000000     2.390000     0.000000
H      -1.049000    -1.443000     0.880000
H      -1.049000    -1.443000    -0.880000
H       1.049000    -1.443000     0.880000
H       1.049000    -1.443000    -0.880000
Li      0.000000     4.240000     0.000000
