21
GFN2 start for E21 DFT cert. src=data/gfn2_pes_precheck_20260820/07_rc_opt_kick (li_ec2_cation.xyz -> chrg 0/uhf 1, kick +-0.25A z seed 20260820, xtb 6.7.1 opt tight, n_imag=0). NOT an endpoint (S39.38(d)); 6-seed lowest basin (S39.42(a)). 2026-08-20
C            0.51955585419204        0.81348442714943        1.39891140431998
O           -0.45555869804667        0.89227676325815        0.42517691720529
C           -0.80056442730943       -0.41625596912810        0.01933577457885
C            0.43972596462131       -1.23937551764119        0.40468573820870
O            1.09941600740569       -0.43974606963295        1.36912486974363
O            1.21633465517064        1.83706813905755        1.59895894253894
H           -1.69175105434476       -0.74571083197366        0.56452251501012
H           -0.99252244268722       -0.39858851981661       -1.05443962423621
H            0.18959227997301       -2.20385002557248        0.85125719344283
H            1.11690592446198       -1.38533673051720       -0.44518093246625
C           -0.54434668723701        0.76708854100376        3.00666010012646
O           -1.09021267226625       -0.50158553082820        2.98733178741382
C           -0.41354049151277       -1.31794255903279        3.92569799753334
C            0.80695342718126       -0.47973963480041        4.34043653764122
O            0.42951890632634        0.83401161936544        3.98316421686832
O           -1.26840188337006        1.77892512781993        2.84726166288691
H           -1.08780572186211       -1.50771160484688        4.76924225968066
H           -0.14125616198568       -2.26090555588542        3.44734866387382
H            0.99985215312196       -0.49690168522535        5.41403262566218
H            1.70519692954210       -0.76718197423030        3.78310128727388
Li          -0.03709186137456        2.87397759147677        2.25005906269483
