11
GFN2 ALT start for R-A product DFT cert. src=data/gfn2_pes_precheck_20260820/04_scanend_opt (free relaxation of the O2-C3 scan's last frame). At GFN2 this basin is 0.59 eV BELOW the packaged li_ec_radical_product.xyz basin (ADR-067 4th instance). NOT an endpoint. 2026-08-20
C            0.15997047460324        1.30166411113813        0.42536181963951
O           -0.92366151002092        0.80637590318267        0.81783342608722
C           -0.57068308369119       -1.11889525600456       -0.74143100920468
C            0.77881157371165       -0.85813224193168       -0.22749012158054
O            1.08834480850956        0.54877646765804       -0.13996927871074
O            0.39898724795875        2.51747163203441        0.54897174468802
H           -1.25516753630452       -1.74096649728366       -0.20413717374137
H           -0.91235352530793       -0.58815667434514       -1.60874942055374
H            0.91563067077488       -1.30570281187796        0.76321167786377
H            1.56541543394092       -1.22613809385317       -0.90233922790353
Li          -1.24529455417472        2.52170346128222        1.26873756341638
