11
[Li(EC)]0 ring-OPENED radical (alkyl C-O bond broken). charge 0, mult 2. GUESS GEOMETRY. units=Angstrom
C     0.000000    1.190000    0.000000
O    -1.132000    0.368000    0.000000
C     0.248000   -2.394000    0.000000
C     0.699000   -0.963000    0.000000
O     1.132000    0.368000    0.000000
O     0.000000    2.390000    0.000000
H     0.748000   -2.794000    0.850000
H     0.748000   -2.794000   -0.850000
H     1.049000   -1.443000    0.880000
H     1.049000   -1.443000   -0.880000
Li    0.000000    4.240000    0.000000
